# set
set V := C1 C2 C3 C4 C5 C6 C7 C8 C9 C10 ;
set F := F11 F12 F13 F14 F11_1 F11_2 F11_3 F11_4 F12_1 F12_2 F12_3 F12_4 F13_1 F13_2 F13_3 F13_4 F14_1 F14_2 F14_3 F14_4 ;
set D0 := N0;
set Dσ := Nσ;

# param
param Cf := 200;		# ECV fixed cost
param C := 200;		# ECV max load
param Q := 77.75;		# ECV/BSV battery level
param r := 1;		# ECV consumption

param Cr := 100;		# recharging cost
param Ct := 10;		# travel cost
param Cs ;		# battery swap cost
param n := 10;		# number of customers
param g := 1.17;	# recharging rate

param m :=
N0 0
C1 23
C2 23
C3 10
C4 10
C5 16
C6 14
C7 30
C8 40
C9 5
C10 10
F11 0
F11_1 0
F11_2 0
F11_3 0
F11_4 0
F12 0
F12_1 0
F12_2 0
F12_3 0
F12_4 0
F13 0
F13_1 0
F13_2 0
F13_3 0
F13_4 0
F14 0
F14_1 0
F14_2 0
F14_3 0
F14_4 0
Nσ 0
;

param e :=
N0 0
C1 180
C2 96
C3 104
C4 37
C5 139
C6 14
C7 0
C8 59
C9 91
C10 64
F11 0
F11_1 0
F11_2 0
F11_3 0
F11_4 0
F12 0
F12_1 0
F12_2 0
F12_3 0
F12_4 0
F13 0
F13_1 0
F13_2 0
F13_3 0
F13_4 0
F14 0
F14_1 0
F14_2 0
F14_3 0
F14_4 0
Nσ 0
;

param l :=
N0 240
C1 210
C2 126
C3 134
C4 67
C5 169
C6 44
C7 171
C8 89
C9 121
C10 94
F11 240
F11_1 240
F11_2 240
F11_3 240
F11_4 240
F12 240
F12_1 240
F12_2 240
F12_3 240
F12_4 240
F13 240
F13_1 240
F13_2 240
F13_3 240
F13_4 240
F14 240
F14_1 240
F14_2 240
F14_3 240
F14_4 240
Nσ 240
;

param s :=
N0 0
C1 10
C2 10
C3 10
C4 10
C5 10
C6 10
C7 10
C8 10
C9 10
C10 10
F11 0
F11_1 0
F11_2 0
F11_3 0
F11_4 0
F12 0
F12_1 0
F12_2 0
F12_3 0
F12_4 0
F13 0
F13_1 0
F13_2 0
F13_3 0
F13_4 0
F14 0
F14_1 0
F14_2 0
F14_3 0
F14_4 0
Nσ 0
;

param d : N0 C1 C2 C3 C4 C5 C6 C7 C8 C9 C10 F11 F11_1 F11_2 F11_3 F11_4 F12 F12_1 F12_2 F12_3 F12_4 F13 F13_1 F13_2 F13_3 F13_4 F14 F14_1 F14_2 F14_3 F14_4 Nσ  :=
N0 0.0000 19.6469 26.9258 38.0526 37.7359 18.0278 14.7648 58.5235 33.5261 20.0000 35.3412 0.0000 0.0000 0.0000 0.0000 0.0000 37.0540 37.0540 37.0540 37.0540 37.0540 24.0208 24.0208 24.0208 24.0208 24.0208 42.0595 42.0595 42.0595 42.0595 42.0595 0.0000
C1 19.6469 0.0000 44.2832 57.4282 19.8494 21.9317 31.6228 71.5612 39.6232 24.2074 23.8537 19.6469 19.6469 19.6469 19.6469 19.6469 45.3100 45.3100 45.3100 45.3100 45.3100 43.1856 43.1856 43.1856 43.1856 43.1856 57.3149 57.3149 57.3149 57.3149 57.3149 19.6469
C2 26.9258 44.2832 0.0000 17.6918 57.8705 43.0116 29.2062 65.1920 26.6271 26.9258 62.2415 26.9258 26.9258 26.9258 26.9258 26.9258 54.2033 54.2033 54.2033 54.2033 54.2033 9.0554 9.0554 9.0554 9.0554 9.0554 47.2652 47.2652 47.2652 47.2652 47.2652 26.9258
C3 38.0526 57.4282 17.6918 0.0000 73.3757 49.7293 32.8938 55.9732 44.0454 43.9090 71.1969 38.0526 38.0526 38.0526 38.0526 38.0526 53.1507 53.1507 53.1507 53.1507 53.1507 14.3178 14.3178 14.3178 14.3178 14.3178 39.3573 39.3573 39.3573 39.3573 39.3573 38.0526
C4 37.7359 19.8494 57.8705 73.3757 0.0000 41.3401 51.0882 91.2634 43.6807 32.0000 35.0000 37.7359 37.7359 37.7359 37.7359 37.7359 64.4127 64.4127 64.4127 64.4127 64.4127 59.1354 59.1354 59.1354 59.1354 59.1354 77.1557 77.1557 77.1557 77.1557 77.1557 37.7359
C5 18.0278 21.9317 43.0116 49.7293 41.3401 0.0000 17.1172 50.0000 51.0784 36.4005 22.0000 18.0278 18.0278 18.0278 18.0278 18.0278 23.4094 23.4094 23.4094 23.4094 23.4094 37.5766 37.5766 37.5766 37.5766 37.5766 37.2022 37.2022 37.2022 37.2022 37.2022 18.0278
C6 14.7648 31.6228 29.2062 32.8938 51.0882 17.1172 0.0000 43.9659 45.0999 33.7343 39.0512 14.7648 14.7648 14.7648 14.7648 14.7648 25.6320 25.6320 25.6320 25.6320 25.6320 22.0227 22.0227 22.0227 22.0227 22.0227 27.2947 27.2947 27.2947 27.2947 27.2947 14.7648
C7 58.5235 71.5612 65.1920 55.9732 91.2634 50.0000 43.9659 0.0000 87.5728 77.6209 65.6049 58.5235 58.5235 58.5235 58.5235 58.5235 28.4253 28.4253 28.4253 28.4253 28.4253 56.1427 56.1427 56.1427 56.1427 56.1427 18.0000 18.0000 18.0000 18.0000 18.0000 58.5235
C8 33.5261 39.6232 26.6271 44.0454 43.6807 51.0784 45.0999 87.5728 0.0000 15.6205 63.0317 33.5261 33.5261 33.5261 33.5261 33.5261 70.0357 70.0357 70.0357 70.0357 70.0357 34.0147 34.0147 34.0147 34.0147 34.0147 69.7209 69.7209 69.7209 69.7209 69.7209 33.5261
C9 20.0000 24.2074 26.9258 43.9090 32.0000 36.4005 33.7343 77.6209 15.6205 0.0000 47.4236 20.0000 20.0000 20.0000 20.0000 20.0000 57.0351 57.0351 57.0351 57.0351 57.0351 30.6105 30.6105 30.6105 30.6105 30.6105 60.4070 60.4070 60.4070 60.4070 60.4070 20.0000
C10 35.3412 23.8537 62.2415 71.1969 35.0000 22.0000 39.0512 65.6049 63.0317 47.4236 0.0000 35.3412 35.3412 35.3412 35.3412 35.3412 37.2022 37.2022 37.2022 37.2022 37.2022 58.2409 58.2409 58.2409 58.2409 58.2409 56.4624 56.4624 56.4624 56.4624 56.4624 35.3412
F11 0.0000 19.6469 26.9258 38.0526 37.7359 18.0278 14.7648 58.5235 33.5261 20.0000 35.3412 0.0000 0.0000 0.0000 0.0000 0.0000 37.0540 37.0540 37.0540 37.0540 37.0540 24.0208 24.0208 24.0208 24.0208 24.0208 42.0595 42.0595 42.0595 42.0595 42.0595 0.0000
F11_1 0.0000 19.6469 26.9258 38.0526 37.7359 18.0278 14.7648 58.5235 33.5261 20.0000 35.3412 0.0000 0.0000 0.0000 0.0000 0.0000 37.0540 37.0540 37.0540 37.0540 37.0540 24.0208 24.0208 24.0208 24.0208 24.0208 42.0595 42.0595 42.0595 42.0595 42.0595 0.0000
F11_2 0.0000 19.6469 26.9258 38.0526 37.7359 18.0278 14.7648 58.5235 33.5261 20.0000 35.3412 0.0000 0.0000 0.0000 0.0000 0.0000 37.0540 37.0540 37.0540 37.0540 37.0540 24.0208 24.0208 24.0208 24.0208 24.0208 42.0595 42.0595 42.0595 42.0595 42.0595 0.0000
F11_3 0.0000 19.6469 26.9258 38.0526 37.7359 18.0278 14.7648 58.5235 33.5261 20.0000 35.3412 0.0000 0.0000 0.0000 0.0000 0.0000 37.0540 37.0540 37.0540 37.0540 37.0540 24.0208 24.0208 24.0208 24.0208 24.0208 42.0595 42.0595 42.0595 42.0595 42.0595 0.0000
F11_4 0.0000 19.6469 26.9258 38.0526 37.7359 18.0278 14.7648 58.5235 33.5261 20.0000 35.3412 0.0000 0.0000 0.0000 0.0000 0.0000 37.0540 37.0540 37.0540 37.0540 37.0540 24.0208 24.0208 24.0208 24.0208 24.0208 42.0595 42.0595 42.0595 42.0595 42.0595 0.0000
F12 37.0540 45.3100 54.2033 53.1507 64.4127 23.4094 25.6320 28.4253 70.0357 57.0351 37.2022 37.0540 37.0540 37.0540 37.0540 37.0540 0.0000 0.0000 0.0000 0.0000 0.0000 46.0435 46.0435 46.0435 46.0435 46.0435 22.0000 22.0000 22.0000 22.0000 22.0000 37.0540
F12_1 37.0540 45.3100 54.2033 53.1507 64.4127 23.4094 25.6320 28.4253 70.0357 57.0351 37.2022 37.0540 37.0540 37.0540 37.0540 37.0540 0.0000 0.0000 0.0000 0.0000 0.0000 46.0435 46.0435 46.0435 46.0435 46.0435 22.0000 22.0000 22.0000 22.0000 22.0000 37.0540
F12_2 37.0540 45.3100 54.2033 53.1507 64.4127 23.4094 25.6320 28.4253 70.0357 57.0351 37.2022 37.0540 37.0540 37.0540 37.0540 37.0540 0.0000 0.0000 0.0000 0.0000 0.0000 46.0435 46.0435 46.0435 46.0435 46.0435 22.0000 22.0000 22.0000 22.0000 22.0000 37.0540
F12_3 37.0540 45.3100 54.2033 53.1507 64.4127 23.4094 25.6320 28.4253 70.0357 57.0351 37.2022 37.0540 37.0540 37.0540 37.0540 37.0540 0.0000 0.0000 0.0000 0.0000 0.0000 46.0435 46.0435 46.0435 46.0435 46.0435 22.0000 22.0000 22.0000 22.0000 22.0000 37.0540
F12_4 37.0540 45.3100 54.2033 53.1507 64.4127 23.4094 25.6320 28.4253 70.0357 57.0351 37.2022 37.0540 37.0540 37.0540 37.0540 37.0540 0.0000 0.0000 0.0000 0.0000 0.0000 46.0435 46.0435 46.0435 46.0435 46.0435 22.0000 22.0000 22.0000 22.0000 22.0000 37.0540
F13 24.0208 43.1856 9.0554 14.3178 59.1354 37.5766 22.0227 56.1427 34.0147 30.6105 58.2409 24.0208 24.0208 24.0208 24.0208 24.0208 46.0435 46.0435 46.0435 46.0435 46.0435 0.0000 0.0000 0.0000 0.0000 0.0000 38.2099 38.2099 38.2099 38.2099 38.2099 24.0208
F13_1 24.0208 43.1856 9.0554 14.3178 59.1354 37.5766 22.0227 56.1427 34.0147 30.6105 58.2409 24.0208 24.0208 24.0208 24.0208 24.0208 46.0435 46.0435 46.0435 46.0435 46.0435 0.0000 0.0000 0.0000 0.0000 0.0000 38.2099 38.2099 38.2099 38.2099 38.2099 24.0208
F13_2 24.0208 43.1856 9.0554 14.3178 59.1354 37.5766 22.0227 56.1427 34.0147 30.6105 58.2409 24.0208 24.0208 24.0208 24.0208 24.0208 46.0435 46.0435 46.0435 46.0435 46.0435 0.0000 0.0000 0.0000 0.0000 0.0000 38.2099 38.2099 38.2099 38.2099 38.2099 24.0208
F13_3 24.0208 43.1856 9.0554 14.3178 59.1354 37.5766 22.0227 56.1427 34.0147 30.6105 58.2409 24.0208 24.0208 24.0208 24.0208 24.0208 46.0435 46.0435 46.0435 46.0435 46.0435 0.0000 0.0000 0.0000 0.0000 0.0000 38.2099 38.2099 38.2099 38.2099 38.2099 24.0208
F13_4 24.0208 43.1856 9.0554 14.3178 59.1354 37.5766 22.0227 56.1427 34.0147 30.6105 58.2409 24.0208 24.0208 24.0208 24.0208 24.0208 46.0435 46.0435 46.0435 46.0435 46.0435 0.0000 0.0000 0.0000 0.0000 0.0000 38.2099 38.2099 38.2099 38.2099 38.2099 24.0208
F14 42.0595 57.3149 47.2652 39.3573 77.1557 37.2022 27.2947 18.0000 69.7209 60.4070 56.4624 42.0595 42.0595 42.0595 42.0595 42.0595 22.0000 22.0000 22.0000 22.0000 22.0000 38.2099 38.2099 38.2099 38.2099 38.2099 0.0000 0.0000 0.0000 0.0000 0.0000 42.0595
F14_1 42.0595 57.3149 47.2652 39.3573 77.1557 37.2022 27.2947 18.0000 69.7209 60.4070 56.4624 42.0595 42.0595 42.0595 42.0595 42.0595 22.0000 22.0000 22.0000 22.0000 22.0000 38.2099 38.2099 38.2099 38.2099 38.2099 0.0000 0.0000 0.0000 0.0000 0.0000 42.0595
F14_2 42.0595 57.3149 47.2652 39.3573 77.1557 37.2022 27.2947 18.0000 69.7209 60.4070 56.4624 42.0595 42.0595 42.0595 42.0595 42.0595 22.0000 22.0000 22.0000 22.0000 22.0000 38.2099 38.2099 38.2099 38.2099 38.2099 0.0000 0.0000 0.0000 0.0000 0.0000 42.0595
F14_3 42.0595 57.3149 47.2652 39.3573 77.1557 37.2022 27.2947 18.0000 69.7209 60.4070 56.4624 42.0595 42.0595 42.0595 42.0595 42.0595 22.0000 22.0000 22.0000 22.0000 22.0000 38.2099 38.2099 38.2099 38.2099 38.2099 0.0000 0.0000 0.0000 0.0000 0.0000 42.0595
F14_4 42.0595 57.3149 47.2652 39.3573 77.1557 37.2022 27.2947 18.0000 69.7209 60.4070 56.4624 42.0595 42.0595 42.0595 42.0595 42.0595 22.0000 22.0000 22.0000 22.0000 22.0000 38.2099 38.2099 38.2099 38.2099 38.2099 0.0000 0.0000 0.0000 0.0000 0.0000 42.0595
Nσ 0.0000 19.6469 26.9258 38.0526 37.7359 18.0278 14.7648 58.5235 33.5261 20.0000 35.3412 0.0000 0.0000 0.0000 0.0000 0.0000 37.0540 37.0540 37.0540 37.0540 37.0540 24.0208 24.0208 24.0208 24.0208 24.0208 42.0595 42.0595 42.0595 42.0595 42.0595 0.0000
;

param t : N0 C1 C2 C3 C4 C5 C6 C7 C8 C9 C10 F11 F11_1 F11_2 F11_3 F11_4 F12 F12_1 F12_2 F12_3 F12_4 F13 F13_1 F13_2 F13_3 F13_4 F14 F14_1 F14_2 F14_3 F14_4 Nσ  :=
N0 0.0000 19.6469 26.9258 38.0526 37.7359 18.0278 14.7648 58.5235 33.5261 20.0000 35.3412 0.0000 0.0000 0.0000 0.0000 0.0000 37.0540 37.0540 37.0540 37.0540 37.0540 24.0208 24.0208 24.0208 24.0208 24.0208 42.0595 42.0595 42.0595 42.0595 42.0595 0.0000
C1 19.6469 0.0000 44.2832 57.4282 19.8494 21.9317 31.6228 71.5612 39.6232 24.2074 23.8537 19.6469 19.6469 19.6469 19.6469 19.6469 45.3100 45.3100 45.3100 45.3100 45.3100 43.1856 43.1856 43.1856 43.1856 43.1856 57.3149 57.3149 57.3149 57.3149 57.3149 19.6469
C2 26.9258 44.2832 0.0000 17.6918 57.8705 43.0116 29.2062 65.1920 26.6271 26.9258 62.2415 26.9258 26.9258 26.9258 26.9258 26.9258 54.2033 54.2033 54.2033 54.2033 54.2033 9.0554 9.0554 9.0554 9.0554 9.0554 47.2652 47.2652 47.2652 47.2652 47.2652 26.9258
C3 38.0526 57.4282 17.6918 0.0000 73.3757 49.7293 32.8938 55.9732 44.0454 43.9090 71.1969 38.0526 38.0526 38.0526 38.0526 38.0526 53.1507 53.1507 53.1507 53.1507 53.1507 14.3178 14.3178 14.3178 14.3178 14.3178 39.3573 39.3573 39.3573 39.3573 39.3573 38.0526
C4 37.7359 19.8494 57.8705 73.3757 0.0000 41.3401 51.0882 91.2634 43.6807 32.0000 35.0000 37.7359 37.7359 37.7359 37.7359 37.7359 64.4127 64.4127 64.4127 64.4127 64.4127 59.1354 59.1354 59.1354 59.1354 59.1354 77.1557 77.1557 77.1557 77.1557 77.1557 37.7359
C5 18.0278 21.9317 43.0116 49.7293 41.3401 0.0000 17.1172 50.0000 51.0784 36.4005 22.0000 18.0278 18.0278 18.0278 18.0278 18.0278 23.4094 23.4094 23.4094 23.4094 23.4094 37.5766 37.5766 37.5766 37.5766 37.5766 37.2022 37.2022 37.2022 37.2022 37.2022 18.0278
C6 14.7648 31.6228 29.2062 32.8938 51.0882 17.1172 0.0000 43.9659 45.0999 33.7343 39.0512 14.7648 14.7648 14.7648 14.7648 14.7648 25.6320 25.6320 25.6320 25.6320 25.6320 22.0227 22.0227 22.0227 22.0227 22.0227 27.2947 27.2947 27.2947 27.2947 27.2947 14.7648
C7 58.5235 71.5612 65.1920 55.9732 91.2634 50.0000 43.9659 0.0000 87.5728 77.6209 65.6049 58.5235 58.5235 58.5235 58.5235 58.5235 28.4253 28.4253 28.4253 28.4253 28.4253 56.1427 56.1427 56.1427 56.1427 56.1427 18.0000 18.0000 18.0000 18.0000 18.0000 58.5235
C8 33.5261 39.6232 26.6271 44.0454 43.6807 51.0784 45.0999 87.5728 0.0000 15.6205 63.0317 33.5261 33.5261 33.5261 33.5261 33.5261 70.0357 70.0357 70.0357 70.0357 70.0357 34.0147 34.0147 34.0147 34.0147 34.0147 69.7209 69.7209 69.7209 69.7209 69.7209 33.5261
C9 20.0000 24.2074 26.9258 43.9090 32.0000 36.4005 33.7343 77.6209 15.6205 0.0000 47.4236 20.0000 20.0000 20.0000 20.0000 20.0000 57.0351 57.0351 57.0351 57.0351 57.0351 30.6105 30.6105 30.6105 30.6105 30.6105 60.4070 60.4070 60.4070 60.4070 60.4070 20.0000
C10 35.3412 23.8537 62.2415 71.1969 35.0000 22.0000 39.0512 65.6049 63.0317 47.4236 0.0000 35.3412 35.3412 35.3412 35.3412 35.3412 37.2022 37.2022 37.2022 37.2022 37.2022 58.2409 58.2409 58.2409 58.2409 58.2409 56.4624 56.4624 56.4624 56.4624 56.4624 35.3412
F11 0.0000 19.6469 26.9258 38.0526 37.7359 18.0278 14.7648 58.5235 33.5261 20.0000 35.3412 0.0000 0.0000 0.0000 0.0000 0.0000 37.0540 37.0540 37.0540 37.0540 37.0540 24.0208 24.0208 24.0208 24.0208 24.0208 42.0595 42.0595 42.0595 42.0595 42.0595 0.0000
F11_1 0.0000 19.6469 26.9258 38.0526 37.7359 18.0278 14.7648 58.5235 33.5261 20.0000 35.3412 0.0000 0.0000 0.0000 0.0000 0.0000 37.0540 37.0540 37.0540 37.0540 37.0540 24.0208 24.0208 24.0208 24.0208 24.0208 42.0595 42.0595 42.0595 42.0595 42.0595 0.0000
F11_2 0.0000 19.6469 26.9258 38.0526 37.7359 18.0278 14.7648 58.5235 33.5261 20.0000 35.3412 0.0000 0.0000 0.0000 0.0000 0.0000 37.0540 37.0540 37.0540 37.0540 37.0540 24.0208 24.0208 24.0208 24.0208 24.0208 42.0595 42.0595 42.0595 42.0595 42.0595 0.0000
F11_3 0.0000 19.6469 26.9258 38.0526 37.7359 18.0278 14.7648 58.5235 33.5261 20.0000 35.3412 0.0000 0.0000 0.0000 0.0000 0.0000 37.0540 37.0540 37.0540 37.0540 37.0540 24.0208 24.0208 24.0208 24.0208 24.0208 42.0595 42.0595 42.0595 42.0595 42.0595 0.0000
F11_4 0.0000 19.6469 26.9258 38.0526 37.7359 18.0278 14.7648 58.5235 33.5261 20.0000 35.3412 0.0000 0.0000 0.0000 0.0000 0.0000 37.0540 37.0540 37.0540 37.0540 37.0540 24.0208 24.0208 24.0208 24.0208 24.0208 42.0595 42.0595 42.0595 42.0595 42.0595 0.0000
F12 37.0540 45.3100 54.2033 53.1507 64.4127 23.4094 25.6320 28.4253 70.0357 57.0351 37.2022 37.0540 37.0540 37.0540 37.0540 37.0540 0.0000 0.0000 0.0000 0.0000 0.0000 46.0435 46.0435 46.0435 46.0435 46.0435 22.0000 22.0000 22.0000 22.0000 22.0000 37.0540
F12_1 37.0540 45.3100 54.2033 53.1507 64.4127 23.4094 25.6320 28.4253 70.0357 57.0351 37.2022 37.0540 37.0540 37.0540 37.0540 37.0540 0.0000 0.0000 0.0000 0.0000 0.0000 46.0435 46.0435 46.0435 46.0435 46.0435 22.0000 22.0000 22.0000 22.0000 22.0000 37.0540
F12_2 37.0540 45.3100 54.2033 53.1507 64.4127 23.4094 25.6320 28.4253 70.0357 57.0351 37.2022 37.0540 37.0540 37.0540 37.0540 37.0540 0.0000 0.0000 0.0000 0.0000 0.0000 46.0435 46.0435 46.0435 46.0435 46.0435 22.0000 22.0000 22.0000 22.0000 22.0000 37.0540
F12_3 37.0540 45.3100 54.2033 53.1507 64.4127 23.4094 25.6320 28.4253 70.0357 57.0351 37.2022 37.0540 37.0540 37.0540 37.0540 37.0540 0.0000 0.0000 0.0000 0.0000 0.0000 46.0435 46.0435 46.0435 46.0435 46.0435 22.0000 22.0000 22.0000 22.0000 22.0000 37.0540
F12_4 37.0540 45.3100 54.2033 53.1507 64.4127 23.4094 25.6320 28.4253 70.0357 57.0351 37.2022 37.0540 37.0540 37.0540 37.0540 37.0540 0.0000 0.0000 0.0000 0.0000 0.0000 46.0435 46.0435 46.0435 46.0435 46.0435 22.0000 22.0000 22.0000 22.0000 22.0000 37.0540
F13 24.0208 43.1856 9.0554 14.3178 59.1354 37.5766 22.0227 56.1427 34.0147 30.6105 58.2409 24.0208 24.0208 24.0208 24.0208 24.0208 46.0435 46.0435 46.0435 46.0435 46.0435 0.0000 0.0000 0.0000 0.0000 0.0000 38.2099 38.2099 38.2099 38.2099 38.2099 24.0208
F13_1 24.0208 43.1856 9.0554 14.3178 59.1354 37.5766 22.0227 56.1427 34.0147 30.6105 58.2409 24.0208 24.0208 24.0208 24.0208 24.0208 46.0435 46.0435 46.0435 46.0435 46.0435 0.0000 0.0000 0.0000 0.0000 0.0000 38.2099 38.2099 38.2099 38.2099 38.2099 24.0208
F13_2 24.0208 43.1856 9.0554 14.3178 59.1354 37.5766 22.0227 56.1427 34.0147 30.6105 58.2409 24.0208 24.0208 24.0208 24.0208 24.0208 46.0435 46.0435 46.0435 46.0435 46.0435 0.0000 0.0000 0.0000 0.0000 0.0000 38.2099 38.2099 38.2099 38.2099 38.2099 24.0208
F13_3 24.0208 43.1856 9.0554 14.3178 59.1354 37.5766 22.0227 56.1427 34.0147 30.6105 58.2409 24.0208 24.0208 24.0208 24.0208 24.0208 46.0435 46.0435 46.0435 46.0435 46.0435 0.0000 0.0000 0.0000 0.0000 0.0000 38.2099 38.2099 38.2099 38.2099 38.2099 24.0208
F13_4 24.0208 43.1856 9.0554 14.3178 59.1354 37.5766 22.0227 56.1427 34.0147 30.6105 58.2409 24.0208 24.0208 24.0208 24.0208 24.0208 46.0435 46.0435 46.0435 46.0435 46.0435 0.0000 0.0000 0.0000 0.0000 0.0000 38.2099 38.2099 38.2099 38.2099 38.2099 24.0208
F14 42.0595 57.3149 47.2652 39.3573 77.1557 37.2022 27.2947 18.0000 69.7209 60.4070 56.4624 42.0595 42.0595 42.0595 42.0595 42.0595 22.0000 22.0000 22.0000 22.0000 22.0000 38.2099 38.2099 38.2099 38.2099 38.2099 0.0000 0.0000 0.0000 0.0000 0.0000 42.0595
F14_1 42.0595 57.3149 47.2652 39.3573 77.1557 37.2022 27.2947 18.0000 69.7209 60.4070 56.4624 42.0595 42.0595 42.0595 42.0595 42.0595 22.0000 22.0000 22.0000 22.0000 22.0000 38.2099 38.2099 38.2099 38.2099 38.2099 0.0000 0.0000 0.0000 0.0000 0.0000 42.0595
F14_2 42.0595 57.3149 47.2652 39.3573 77.1557 37.2022 27.2947 18.0000 69.7209 60.4070 56.4624 42.0595 42.0595 42.0595 42.0595 42.0595 22.0000 22.0000 22.0000 22.0000 22.0000 38.2099 38.2099 38.2099 38.2099 38.2099 0.0000 0.0000 0.0000 0.0000 0.0000 42.0595
F14_3 42.0595 57.3149 47.2652 39.3573 77.1557 37.2022 27.2947 18.0000 69.7209 60.4070 56.4624 42.0595 42.0595 42.0595 42.0595 42.0595 22.0000 22.0000 22.0000 22.0000 22.0000 38.2099 38.2099 38.2099 38.2099 38.2099 0.0000 0.0000 0.0000 0.0000 0.0000 42.0595
F14_4 42.0595 57.3149 47.2652 39.3573 77.1557 37.2022 27.2947 18.0000 69.7209 60.4070 56.4624 42.0595 42.0595 42.0595 42.0595 42.0595 22.0000 22.0000 22.0000 22.0000 22.0000 38.2099 38.2099 38.2099 38.2099 38.2099 0.0000 0.0000 0.0000 0.0000 0.0000 42.0595
Nσ 0.0000 19.6469 26.9258 38.0526 37.7359 18.0278 14.7648 58.5235 33.5261 20.0000 35.3412 0.0000 0.0000 0.0000 0.0000 0.0000 37.0540 37.0540 37.0540 37.0540 37.0540 24.0208 24.0208 24.0208 24.0208 24.0208 42.0595 42.0595 42.0595 42.0595 42.0595 0.0000
;
